Maximize
  - 3.4951861234878 edge_0_1_0_0 - 4.6585175851974 edge_0_2_0_0
   - 4.3755999118971 edge_0_3_0_0 - 2.176302422016 edge_0_4_0_0
   - 3.1371974149104 edge_0_5_0_0 - 2.5969798441812 edge_0_6_0_0
   - 3.5287821043445 edge_0_8_0_0 - 1.240439654647 edge_0_9_0_0
   - 1.8634068809784 edge_0_13_0_0 - 3.3795473897288 edge_0_16_0_0
   - 1.4058118685584 edge_0_19_0_0 - 3.2157632143176 edge_0_20_0_0
   - 0.256149335835896 edge_1_2_0_0 + 0.1769885268188088 edge_1_3_0_0
   - 0.4187561426550592 edge_1_4_0_0 - 0.8395769225698612 edge_1_5_0_0
   - 0.5960121576544384 edge_1_6_0_0 + 0.1680490562757516 edge_1_8_0_0
   - 0.9673893562525809 edge_1_9_0_0 - 0.1784365684216987 edge_1_10_0_0
   + 0.2498697210005274 edge_2_1_0_0 + 1.239414671889771 edge_2_3_0_0
   + 0.6718704330339829 edge_2_4_0_0 + 0.9586214377097255 edge_2_6_0_0
   + 1.213954555167243 edge_2_8_0_0 - 0.2940007072950073 edge_2_9_0_0
   + 0.1663050458583878 edge_2_10_0_0 - 0.4737923254708015 edge_2_13_0_0
   - 0.6771169145050615 edge_2_16_0_0 + 0.265200449605342 edge_2_18_0_0
   - 1.02060054668679 edge_2_19_0_0 - 0.3086064881160383 edge_2_20_0_0
   + 0.40646578356504 edge_2_21_0_0 - 1.143928687964823 edge_3_1_0_0
   - 0.3716087452710627 edge_3_2_0_0 - 0.0669849752732216 edge_3_4_0_0
   - 0.3069910789235583 edge_3_6_0_0 - 0.4806266345957342 edge_3_8_0_0
   - 0.0858492019732758 edge_4_1_0_0 + 0.5335928394567299 edge_4_2_0_0
   + 0.8384786063315294 edge_4_3_0_0 + 0.5802110271014624 edge_4_5_0_0
   + 1.317921541806703 edge_4_6_0_0 + 1.196735579608729 edge_4_8_0_0
   + 0.9875455232162835 edge_4_9_0_0 + 1.516809692437173 edge_4_10_0_0
   + 0.6028317581811692 edge_4_13_0_0 + 0.3041349218713912 edge_4_16_0_0
   + 0.939467191332388 edge_4_18_0_0 + 0.6485329601369961 edge_4_19_0_0
   - 0.3562032399675014 edge_4_20_0_0 + 3.069852632237231 edge_4_21_0_0
   - 0.0961917330620336 edge_5_1_0_0 + 0.2154309069254639 edge_5_4_0_0
   + 1.008377684197035 edge_5_6_0_0 + 0.5631067948270639 edge_5_8_0_0
   + 0.2452958822157005 edge_5_9_0_0 + 0.1078899390479227 edge_5_10_0_0
   - 0.0189180971821788 edge_5_13_0_0 - 0.684243077187891 edge_5_14_0_0
   - 1.132144440553141 edge_5_15_0_0 - 1.080393836411085 edge_5_16_0_0
   + 0.8927041463090141 edge_6_1_0_0 + 1.845214016520954 edge_6_2_0_0
   + 1.912139862680061 edge_6_3_0_0 + 2.162961905281791 edge_6_4_0_0
   + 1.554286328662877 edge_6_5_0_0 + 2.995017393542833 edge_6_8_0_0
   + 2.919844759806308 edge_6_9_0_0 + 1.853273394016394 edge_6_10_0_0
   + 0.8097357744077169 edge_6_13_0_0 + 0.1198201593323309 edge_6_14_0_0
   - 0.1556371761472089 edge_6_15_0_0 + 0.3791823904162844 edge_6_16_0_0
   + 1.170438834847361 edge_6_17_0_0 + 1.320816635972164 edge_6_18_0_0
   + 1.732456024950584 edge_6_19_0_0 + 0.0689559328416406 edge_6_20_0_0
   + 4.967891378235233 edge_6_21_0_0 - 0.7635421313887606 edge_8_1_0_0
   - 0.77112369576625 edge_8_3_0_0 - 1.102308994860564 edge_8_4_0_0
   - 0.2266881376379893 edge_8_5_0_0 - 0.149900174255509 edge_8_6_0_0
   + 0.2170517485452624 edge_8_9_0_0 + 0.5688660226987813 edge_8_10_0_0
   - 0.2169821274047268 edge_8_13_0_0 - 0.9706059854029701 edge_9_1_0_0
   - 0.3824013551992225 edge_9_2_0_0 - 0.560684053578408 edge_9_3_0_0
   - 0.583687440043326 edge_9_4_0_0 + 0.0727122323742199 edge_9_5_0_0
   - 0.2349845911933674 edge_9_6_0_0 + 0.1690057248230113 edge_9_8_0_0
   + 2.125203582542746 edge_9_10_0_0 + 1.633898792808331 edge_9_13_0_0
   + 0.8467670433467606 edge_9_14_0_0 + 0.3413464353268266 edge_9_15_0_0
   + 1.128579322852097 edge_9_16_0_0 + 1.64230224101969 edge_9_17_0_0
   + 1.787079820075033 edge_9_18_0_0 + 1.894438584216237 edge_9_19_0_0
   + 0.2709020159683991 edge_9_20_0_0 + 3.306481230801089 edge_9_21_0_0
   - 1.191163954518967 edge_10_8_0_0 - 0.9489071697781359 edge_10_9_0_0
   - 0.0231140227436348 edge_10_13_0_0 - 0.2312757739998742 edge_13_1_0_0
   - 0.2386470532710126 edge_13_2_0_0 + 0.0979051477580848 edge_13_3_0_0
   - 0.1908607475521875 edge_13_4_0_0 - 0.0547441408845484 edge_13_5_0_0
   + 0.1492408489969885 edge_13_6_0_0 - 0.0118577662650875 edge_13_8_0_0
   + 1.111111529214006 edge_13_9_0_0 + 0.9976357527820039 edge_13_10_0_0
   + 0.9660909551444379 edge_13_14_0_0 + 0.315358885953185 edge_13_15_0_0
   + 1.702159863614506 edge_13_16_0_0 + 1.396405474469914 edge_13_17_0_0
   + 0.9538686185626949 edge_13_18_0_0 + 0.8737586106304881 edge_13_19_0_0
   + 0.3670563134480243 edge_13_20_0_0 + 1.749687362006578 edge_13_21_0_0
   - 0.5171392829858804 edge_14_1_0_0 + 0.2060758704159804 edge_14_10_0_0
   + 0.2678715382680865 edge_14_13_0_0 + 0.5993514665361195 edge_14_15_0_0
   + 1.171072261806043 edge_14_16_0_0 - 0.2541337049768768 edge_14_17_0_0
   + 0.528607382717732 edge_14_18_0_0 + 0.1034137088977702 edge_14_19_0_0
   - 0.7081729525012823 edge_14_20_0_0 + 0.3106192314288413 edge_15_14_0_0
   + 0.9323512595977532 edge_15_16_0_0 + 0.4943965658900857 edge_15_18_0_0
   + 0.4761299363911062 edge_15_19_0_0 - 0.3650338382192619 edge_15_20_0_0
   - 0.1054993185527175 edge_16_1_0_0 - 0.6583479318911185 edge_16_2_0_0
   + 0.1027571666217141 edge_16_3_0_0 - 0.6088179584596548 edge_16_4_0_0
   - 0.6531134300685192 edge_16_5_0_0 - 0.342478638491507 edge_16_6_0_0
   + 0.00075131 edge_16_8_0_0 + 0.1250279249832108 edge_16_9_0_0
   + 0.3959871708734962 edge_16_10_0_0 + 0.3372935766983922 edge_16_13_0_0
   + 3.577501022193649 edge_16_14_0_0 + 3.480672011841717 edge_16_15_0_0
   + 0.9397809817816064 edge_16_17_0_0 + 1.030580118115112 edge_16_18_0_0
   + 0.6991793318533632 edge_16_19_0_0 + 0.0065788675465931 edge_16_20_0_0
   + 2.429272403647788 edge_16_21_0_0 - 0.7790333628978192 edge_17_16_0_0
   - 0.5660747763266004 edge_18_14_0_0 - 0.3070046251352138 edge_18_15_0_0
   - 0.5627248053083908 edge_18_16_0_0 - 0.5202566664881096 edge_18_17_0_0
   + 0.3122716385334228 edge_18_19_0_0 - 0.4304214002072704 edge_18_20_0_0
   + 0.035356282431312 edge_18_21_0_0 - 1.119755925762475 edge_19_1_0_0
   - 0.7957931152870609 edge_19_2_0_0 - 0.6569999832662092 edge_19_4_0_0
   - 0.90350673866749 edge_19_5_0_0 - 1.04472680745753 edge_19_6_0_0
   - 1.401432452900137 edge_19_8_0_0 - 0.6570240289778382 edge_19_9_0_0
   - 0.5809871834199735 edge_19_10_0_0 - 0.2859300364037595 edge_19_13_0_0
   - 0.3894589938356486 edge_19_14_0_0 - 0.7185795700412263 edge_19_15_0_0
   - 0.336395098458917 edge_19_16_0_0 - 0.1707652855614118 edge_19_17_0_0
   + 0.0520049554281222 edge_19_18_0_0 + 1.925515858437441 edge_19_20_0_0
   + 1.841274413319398 edge_19_21_0_0 - 0.3389369667528949 edge_20_1_0_0
   - 0.1637384064462014 edge_20_2_0_0 + 0.1521931485475565 edge_20_3_0_0
   - 0.2401411982143296 edge_20_4_0_0 - 0.0376776665986107 edge_20_6_0_0
   - 0.1492002414339458 edge_20_8_0_0 - 0.3686599042523266 edge_20_9_0_0
   + 0.3673941764095639 edge_20_10_0_0 + 0.1150251492307243 edge_20_13_0_0
   + 0.6807427195770187 edge_20_14_0_0 + 0.3075566140818538 edge_20_15_0_0
   - 0.1621152048882015 edge_20_16_0_0 + 0.6295684054496737 edge_20_18_0_0
   + 0.7511718956364224 edge_20_19_0_0 + 1.2239381760906 edge_20_21_0_0
   - 0.2580029984157 edge_21_20_0_0
Subject To
 one_parent_1: edge_0_1_0_0 + edge_2_1_0_0 + edge_3_1_0_0 + edge_4_1_0_0
   + edge_5_1_0_0 + edge_6_1_0_0 + edge_8_1_0_0 + edge_9_1_0_0
   + edge_13_1_0_0 + edge_14_1_0_0 + edge_16_1_0_0 + edge_19_1_0_0
   + edge_20_1_0_0 = 1
 consume_one_flow_unit_1: flow_0_1_0_0 - flow_1_2_0_0 - flow_1_3_0_0
   - flow_1_4_0_0 - flow_1_5_0_0 - flow_1_6_0_0 - flow_1_8_0_0
   - flow_1_9_0_0 - flow_1_10_0_0 + flow_2_1_0_0 + flow_3_1_0_0
   + flow_4_1_0_0 + flow_5_1_0_0 + flow_6_1_0_0 + flow_8_1_0_0
   + flow_9_1_0_0 + flow_13_1_0_0 + flow_14_1_0_0 + flow_16_1_0_0
   + flow_19_1_0_0 + flow_20_1_0_0 = 1
 one_parent_2: edge_0_2_0_0 + edge_1_2_0_0 + edge_3_2_0_0 + edge_4_2_0_0
   + edge_6_2_0_0 + edge_9_2_0_0 + edge_13_2_0_0 + edge_16_2_0_0
   + edge_19_2_0_0 + edge_20_2_0_0 = 1
 consume_one_flow_unit_2: flow_0_2_0_0 + flow_1_2_0_0 - flow_2_1_0_0
   - flow_2_3_0_0 - flow_2_4_0_0 - flow_2_6_0_0 - flow_2_8_0_0
   - flow_2_9_0_0 - flow_2_10_0_0 - flow_2_13_0_0 - flow_2_16_0_0
   - flow_2_18_0_0 - flow_2_19_0_0 - flow_2_20_0_0 - flow_2_21_0_0
   + flow_3_2_0_0 + flow_4_2_0_0 + flow_6_2_0_0 + flow_9_2_0_0
   + flow_13_2_0_0 + flow_16_2_0_0 + flow_19_2_0_0 + flow_20_2_0_0 = 1
 one_parent_3: edge_0_3_0_0 + edge_1_3_0_0 + edge_2_3_0_0 + edge_4_3_0_0
   + edge_6_3_0_0 + edge_8_3_0_0 + edge_9_3_0_0 + edge_13_3_0_0
   + edge_16_3_0_0 + edge_20_3_0_0 = 1
 consume_one_flow_unit_3: flow_0_3_0_0 + flow_1_3_0_0 + flow_2_3_0_0
   - flow_3_1_0_0 - flow_3_2_0_0 - flow_3_4_0_0 - flow_3_6_0_0
   - flow_3_8_0_0 + flow_4_3_0_0 + flow_6_3_0_0 + flow_8_3_0_0
   + flow_9_3_0_0 + flow_13_3_0_0 + flow_16_3_0_0 + flow_20_3_0_0 = 1
 one_parent_4: edge_0_4_0_0 + edge_1_4_0_0 + edge_2_4_0_0 + edge_3_4_0_0
   + edge_5_4_0_0 + edge_6_4_0_0 + edge_8_4_0_0 + edge_9_4_0_0
   + edge_13_4_0_0 + edge_16_4_0_0 + edge_19_4_0_0 + edge_20_4_0_0 = 1
 consume_one_flow_unit_4: flow_0_4_0_0 + flow_1_4_0_0 + flow_2_4_0_0
   + flow_3_4_0_0 - flow_4_1_0_0 - flow_4_2_0_0 - flow_4_3_0_0
   - flow_4_5_0_0 - flow_4_6_0_0 - flow_4_8_0_0 - flow_4_9_0_0
   - flow_4_10_0_0 - flow_4_13_0_0 - flow_4_16_0_0 - flow_4_18_0_0
   - flow_4_19_0_0 - flow_4_20_0_0 - flow_4_21_0_0 + flow_5_4_0_0
   + flow_6_4_0_0 + flow_8_4_0_0 + flow_9_4_0_0 + flow_13_4_0_0
   + flow_16_4_0_0 + flow_19_4_0_0 + flow_20_4_0_0 = 1
 one_parent_5: edge_0_5_0_0 + edge_1_5_0_0 + edge_4_5_0_0 + edge_6_5_0_0
   + edge_8_5_0_0 + edge_9_5_0_0 + edge_13_5_0_0 + edge_16_5_0_0
   + edge_19_5_0_0 = 1
 consume_one_flow_unit_5: flow_0_5_0_0 + flow_1_5_0_0 + flow_4_5_0_0
   - flow_5_1_0_0 - flow_5_4_0_0 - flow_5_6_0_0 - flow_5_8_0_0
   - flow_5_9_0_0 - flow_5_10_0_0 - flow_5_13_0_0 - flow_5_14_0_0
   - flow_5_15_0_0 - flow_5_16_0_0 + flow_6_5_0_0 + flow_8_5_0_0
   + flow_9_5_0_0 + flow_13_5_0_0 + flow_16_5_0_0 + flow_19_5_0_0 = 1
 one_parent_6: edge_0_6_0_0 + edge_1_6_0_0 + edge_2_6_0_0 + edge_3_6_0_0
   + edge_4_6_0_0 + edge_5_6_0_0 + edge_8_6_0_0 + edge_9_6_0_0
   + edge_13_6_0_0 + edge_16_6_0_0 + edge_19_6_0_0 + edge_20_6_0_0 = 1
 consume_one_flow_unit_6: flow_0_6_0_0 + flow_1_6_0_0 + flow_2_6_0_0
   + flow_3_6_0_0 + flow_4_6_0_0 + flow_5_6_0_0 - flow_6_1_0_0
   - flow_6_2_0_0 - flow_6_3_0_0 - flow_6_4_0_0 - flow_6_5_0_0
   - flow_6_8_0_0 - flow_6_9_0_0 - flow_6_10_0_0 - flow_6_13_0_0
   - flow_6_14_0_0 - flow_6_15_0_0 - flow_6_16_0_0 - flow_6_17_0_0
   - flow_6_18_0_0 - flow_6_19_0_0 - flow_6_20_0_0 - flow_6_21_0_0
   + flow_8_6_0_0 + flow_9_6_0_0 + flow_13_6_0_0 + flow_16_6_0_0
   + flow_19_6_0_0 + flow_20_6_0_0 = 1
 one_parent_7: = 1
 consume_one_flow_unit_7: = 1
 one_parent_8: edge_0_8_0_0 + edge_1_8_0_0 + edge_2_8_0_0 + edge_3_8_0_0
   + edge_4_8_0_0 + edge_5_8_0_0 + edge_6_8_0_0 + edge_9_8_0_0
   + edge_10_8_0_0 + edge_13_8_0_0 + edge_16_8_0_0 + edge_19_8_0_0
   + edge_20_8_0_0 = 1
 consume_one_flow_unit_8: flow_0_8_0_0 + flow_1_8_0_0 + flow_2_8_0_0
   + flow_3_8_0_0 + flow_4_8_0_0 + flow_5_8_0_0 + flow_6_8_0_0
   - flow_8_1_0_0 - flow_8_3_0_0 - flow_8_4_0_0 - flow_8_5_0_0
   - flow_8_6_0_0 - flow_8_9_0_0 - flow_8_10_0_0 - flow_8_13_0_0
   + flow_9_8_0_0 + flow_10_8_0_0 + flow_13_8_0_0 + flow_16_8_0_0
   + flow_19_8_0_0 + flow_20_8_0_0 = 1
 one_parent_9: edge_0_9_0_0 + edge_1_9_0_0 + edge_2_9_0_0 + edge_4_9_0_0
   + edge_5_9_0_0 + edge_6_9_0_0 + edge_8_9_0_0 + edge_10_9_0_0
   + edge_13_9_0_0 + edge_16_9_0_0 + edge_19_9_0_0 + edge_20_9_0_0 = 1
 consume_one_flow_unit_9: flow_0_9_0_0 + flow_1_9_0_0 + flow_2_9_0_0
   + flow_4_9_0_0 + flow_5_9_0_0 + flow_6_9_0_0 + flow_8_9_0_0
   - flow_9_1_0_0 - flow_9_2_0_0 - flow_9_3_0_0 - flow_9_4_0_0
   - flow_9_5_0_0 - flow_9_6_0_0 - flow_9_8_0_0 - flow_9_10_0_0
   - flow_9_13_0_0 - flow_9_14_0_0 - flow_9_15_0_0 - flow_9_16_0_0
   - flow_9_17_0_0 - flow_9_18_0_0 - flow_9_19_0_0 - flow_9_20_0_0
   - flow_9_21_0_0 + flow_10_9_0_0 + flow_13_9_0_0 + flow_16_9_0_0
   + flow_19_9_0_0 + flow_20_9_0_0 = 1
 one_parent_10: edge_1_10_0_0 + edge_2_10_0_0 + edge_4_10_0_0
   + edge_5_10_0_0 + edge_6_10_0_0 + edge_8_10_0_0 + edge_9_10_0_0
   + edge_13_10_0_0 + edge_14_10_0_0 + edge_16_10_0_0 + edge_19_10_0_0
   + edge_20_10_0_0 = 1
 consume_one_flow_unit_10: flow_1_10_0_0 + flow_2_10_0_0 + flow_4_10_0_0
   + flow_5_10_0_0 + flow_6_10_0_0 + flow_8_10_0_0 + flow_9_10_0_0
   - flow_10_8_0_0 - flow_10_9_0_0 - flow_10_13_0_0 + flow_13_10_0_0
   + flow_14_10_0_0 + flow_16_10_0_0 + flow_19_10_0_0 + flow_20_10_0_0 = 1
 one_parent_11: = 1
 consume_one_flow_unit_11: = 1
 one_parent_12: = 1
 consume_one_flow_unit_12: = 1
 one_parent_13: edge_0_13_0_0 + edge_2_13_0_0 + edge_4_13_0_0
   + edge_5_13_0_0 + edge_6_13_0_0 + edge_8_13_0_0 + edge_9_13_0_0
   + edge_10_13_0_0 + edge_14_13_0_0 + edge_16_13_0_0 + edge_19_13_0_0
   + edge_20_13_0_0 = 1
 consume_one_flow_unit_13: flow_0_13_0_0 + flow_2_13_0_0 + flow_4_13_0_0
   + flow_5_13_0_0 + flow_6_13_0_0 + flow_8_13_0_0 + flow_9_13_0_0
   + flow_10_13_0_0 - flow_13_1_0_0 - flow_13_2_0_0 - flow_13_3_0_0
   - flow_13_4_0_0 - flow_13_5_0_0 - flow_13_6_0_0 - flow_13_8_0_0
   - flow_13_9_0_0 - flow_13_10_0_0 - flow_13_14_0_0 - flow_13_15_0_0
   - flow_13_16_0_0 - flow_13_17_0_0 - flow_13_18_0_0 - flow_13_19_0_0
   - flow_13_20_0_0 - flow_13_21_0_0 + flow_14_13_0_0 + flow_16_13_0_0
   + flow_19_13_0_0 + flow_20_13_0_0 = 1
 one_parent_14: edge_5_14_0_0 + edge_6_14_0_0 + edge_9_14_0_0
   + edge_13_14_0_0 + edge_15_14_0_0 + edge_16_14_0_0 + edge_18_14_0_0
   + edge_19_14_0_0 + edge_20_14_0_0 = 1
 consume_one_flow_unit_14: flow_5_14_0_0 + flow_6_14_0_0 + flow_9_14_0_0
   + flow_13_14_0_0 - flow_14_1_0_0 - flow_14_10_0_0 - flow_14_13_0_0
   - flow_14_15_0_0 - flow_14_16_0_0 - flow_14_17_0_0 - flow_14_18_0_0
   - flow_14_19_0_0 - flow_14_20_0_0 + flow_15_14_0_0 + flow_16_14_0_0
   + flow_18_14_0_0 + flow_19_14_0_0 + flow_20_14_0_0 = 1
 one_parent_15: edge_5_15_0_0 + edge_6_15_0_0 + edge_9_15_0_0
   + edge_13_15_0_0 + edge_14_15_0_0 + edge_16_15_0_0 + edge_18_15_0_0
   + edge_19_15_0_0 + edge_20_15_0_0 = 1
 consume_one_flow_unit_15: flow_5_15_0_0 + flow_6_15_0_0 + flow_9_15_0_0
   + flow_13_15_0_0 + flow_14_15_0_0 - flow_15_14_0_0 - flow_15_16_0_0
   - flow_15_18_0_0 - flow_15_19_0_0 - flow_15_20_0_0 + flow_16_15_0_0
   + flow_18_15_0_0 + flow_19_15_0_0 + flow_20_15_0_0 = 1
 one_parent_16: edge_0_16_0_0 + edge_2_16_0_0 + edge_4_16_0_0
   + edge_5_16_0_0 + edge_6_16_0_0 + edge_9_16_0_0 + edge_13_16_0_0
   + edge_14_16_0_0 + edge_15_16_0_0 + edge_17_16_0_0 + edge_18_16_0_0
   + edge_19_16_0_0 + edge_20_16_0_0 = 1
 consume_one_flow_unit_16: flow_0_16_0_0 + flow_2_16_0_0 + flow_4_16_0_0
   + flow_5_16_0_0 + flow_6_16_0_0 + flow_9_16_0_0 + flow_13_16_0_0
   + flow_14_16_0_0 + flow_15_16_0_0 - flow_16_1_0_0 - flow_16_2_0_0
   - flow_16_3_0_0 - flow_16_4_0_0 - flow_16_5_0_0 - flow_16_6_0_0
   - flow_16_8_0_0 - flow_16_9_0_0 - flow_16_10_0_0 - flow_16_13_0_0
   - flow_16_14_0_0 - flow_16_15_0_0 - flow_16_17_0_0 - flow_16_18_0_0
   - flow_16_19_0_0 - flow_16_20_0_0 - flow_16_21_0_0 + flow_17_16_0_0
   + flow_18_16_0_0 + flow_19_16_0_0 + flow_20_16_0_0 = 1
 one_parent_17: edge_6_17_0_0 + edge_9_17_0_0 + edge_13_17_0_0
   + edge_14_17_0_0 + edge_16_17_0_0 + edge_18_17_0_0 + edge_19_17_0_0 = 1
 consume_one_flow_unit_17: flow_6_17_0_0 + flow_9_17_0_0 + flow_13_17_0_0
   + flow_14_17_0_0 + flow_16_17_0_0 - flow_17_16_0_0 + flow_18_17_0_0
   + flow_19_17_0_0 = 1
 one_parent_18: edge_2_18_0_0 + edge_4_18_0_0 + edge_6_18_0_0
   + edge_9_18_0_0 + edge_13_18_0_0 + edge_14_18_0_0 + edge_15_18_0_0
   + edge_16_18_0_0 + edge_19_18_0_0 + edge_20_18_0_0 = 1
 consume_one_flow_unit_18: flow_2_18_0_0 + flow_4_18_0_0 + flow_6_18_0_0
   + flow_9_18_0_0 + flow_13_18_0_0 + flow_14_18_0_0 + flow_15_18_0_0
   + flow_16_18_0_0 - flow_18_14_0_0 - flow_18_15_0_0 - flow_18_16_0_0
   - flow_18_17_0_0 - flow_18_19_0_0 - flow_18_20_0_0 - flow_18_21_0_0
   + flow_19_18_0_0 + flow_20_18_0_0 = 1
 one_parent_19: edge_0_19_0_0 + edge_2_19_0_0 + edge_4_19_0_0
   + edge_6_19_0_0 + edge_9_19_0_0 + edge_13_19_0_0 + edge_14_19_0_0
   + edge_15_19_0_0 + edge_16_19_0_0 + edge_18_19_0_0 + edge_20_19_0_0 = 1
 consume_one_flow_unit_19: flow_0_19_0_0 + flow_2_19_0_0 + flow_4_19_0_0
   + flow_6_19_0_0 + flow_9_19_0_0 + flow_13_19_0_0 + flow_14_19_0_0
   + flow_15_19_0_0 + flow_16_19_0_0 + flow_18_19_0_0 - flow_19_1_0_0
   - flow_19_2_0_0 - flow_19_4_0_0 - flow_19_5_0_0 - flow_19_6_0_0
   - flow_19_8_0_0 - flow_19_9_0_0 - flow_19_10_0_0 - flow_19_13_0_0
   - flow_19_14_0_0 - flow_19_15_0_0 - flow_19_16_0_0 - flow_19_17_0_0
   - flow_19_18_0_0 - flow_19_20_0_0 - flow_19_21_0_0 + flow_20_19_0_0 = 1
 one_parent_20: edge_0_20_0_0 + edge_2_20_0_0 + edge_4_20_0_0
   + edge_6_20_0_0 + edge_9_20_0_0 + edge_13_20_0_0 + edge_14_20_0_0
   + edge_15_20_0_0 + edge_16_20_0_0 + edge_18_20_0_0 + edge_19_20_0_0
   + edge_21_20_0_0 = 1
 consume_one_flow_unit_20: flow_0_20_0_0 + flow_2_20_0_0 + flow_4_20_0_0
   + flow_6_20_0_0 + flow_9_20_0_0 + flow_13_20_0_0 + flow_14_20_0_0
   + flow_15_20_0_0 + flow_16_20_0_0 + flow_18_20_0_0 + flow_19_20_0_0
   - flow_20_1_0_0 - flow_20_2_0_0 - flow_20_3_0_0 - flow_20_4_0_0
   - flow_20_6_0_0 - flow_20_8_0_0 - flow_20_9_0_0 - flow_20_10_0_0
   - flow_20_13_0_0 - flow_20_14_0_0 - flow_20_15_0_0 - flow_20_16_0_0
   - flow_20_18_0_0 - flow_20_19_0_0 - flow_20_21_0_0 + flow_21_20_0_0 = 1
 one_parent_21: edge_2_21_0_0 + edge_4_21_0_0 + edge_6_21_0_0
   + edge_9_21_0_0 + edge_13_21_0_0 + edge_16_21_0_0 + edge_18_21_0_0
   + edge_19_21_0_0 + edge_20_21_0_0 = 1
 consume_one_flow_unit_21: flow_2_21_0_0 + flow_4_21_0_0 + flow_6_21_0_0
   + flow_9_21_0_0 + flow_13_21_0_0 + flow_16_21_0_0 + flow_18_21_0_0
   + flow_19_21_0_0 + flow_20_21_0_0 - flow_21_20_0_0 = 1
 root_flow: flow_0_1_0_0 + flow_0_2_0_0 + flow_0_3_0_0 + flow_0_4_0_0
   + flow_0_5_0_0 + flow_0_6_0_0 + flow_0_8_0_0 + flow_0_9_0_0
   + flow_0_13_0_0 + flow_0_16_0_0 + flow_0_19_0_0 + flow_0_20_0_0 = 21
 inactive_no_flow_0_1_0_0: flow_0_1_0_0 - 1000 edge_0_1_0_0 <= 0
 inactive_no_flow_0_2_0_0: flow_0_2_0_0 - 1000 edge_0_2_0_0 <= 0
 inactive_no_flow_0_3_0_0: flow_0_3_0_0 - 1000 edge_0_3_0_0 <= 0
 inactive_no_flow_0_4_0_0: flow_0_4_0_0 - 1000 edge_0_4_0_0 <= 0
 inactive_no_flow_0_5_0_0: flow_0_5_0_0 - 1000 edge_0_5_0_0 <= 0
 inactive_no_flow_0_6_0_0: flow_0_6_0_0 - 1000 edge_0_6_0_0 <= 0
 inactive_no_flow_0_8_0_0: flow_0_8_0_0 - 1000 edge_0_8_0_0 <= 0
 inactive_no_flow_0_9_0_0: flow_0_9_0_0 - 1000 edge_0_9_0_0 <= 0
 inactive_no_flow_0_13_0_0: flow_0_13_0_0 - 1000 edge_0_13_0_0 <= 0
 inactive_no_flow_0_16_0_0: flow_0_16_0_0 - 1000 edge_0_16_0_0 <= 0
 inactive_no_flow_0_19_0_0: flow_0_19_0_0 - 1000 edge_0_19_0_0 <= 0
 inactive_no_flow_0_20_0_0: flow_0_20_0_0 - 1000 edge_0_20_0_0 <= 0
 inactive_no_flow_1_2_0_0: flow_1_2_0_0 - 1000 edge_1_2_0_0 <= 0
 inactive_no_flow_1_3_0_0: flow_1_3_0_0 - 1000 edge_1_3_0_0 <= 0
 inactive_no_flow_1_4_0_0: flow_1_4_0_0 - 1000 edge_1_4_0_0 <= 0
 inactive_no_flow_1_5_0_0: flow_1_5_0_0 - 1000 edge_1_5_0_0 <= 0
 inactive_no_flow_1_6_0_0: flow_1_6_0_0 - 1000 edge_1_6_0_0 <= 0
 inactive_no_flow_1_8_0_0: flow_1_8_0_0 - 1000 edge_1_8_0_0 <= 0
 inactive_no_flow_1_9_0_0: flow_1_9_0_0 - 1000 edge_1_9_0_0 <= 0
 inactive_no_flow_1_10_0_0: flow_1_10_0_0 - 1000 edge_1_10_0_0 <= 0
 inactive_no_flow_2_1_0_0: flow_2_1_0_0 - 1000 edge_2_1_0_0 <= 0
 inactive_no_flow_2_3_0_0: flow_2_3_0_0 - 1000 edge_2_3_0_0 <= 0
 inactive_no_flow_2_4_0_0: flow_2_4_0_0 - 1000 edge_2_4_0_0 <= 0
 inactive_no_flow_2_6_0_0: flow_2_6_0_0 - 1000 edge_2_6_0_0 <= 0
 inactive_no_flow_2_8_0_0: flow_2_8_0_0 - 1000 edge_2_8_0_0 <= 0
 inactive_no_flow_2_9_0_0: flow_2_9_0_0 - 1000 edge_2_9_0_0 <= 0
 inactive_no_flow_2_10_0_0: flow_2_10_0_0 - 1000 edge_2_10_0_0 <= 0
 inactive_no_flow_2_13_0_0: flow_2_13_0_0 - 1000 edge_2_13_0_0 <= 0
 inactive_no_flow_2_16_0_0: flow_2_16_0_0 - 1000 edge_2_16_0_0 <= 0
 inactive_no_flow_2_18_0_0: flow_2_18_0_0 - 1000 edge_2_18_0_0 <= 0
 inactive_no_flow_2_19_0_0: flow_2_19_0_0 - 1000 edge_2_19_0_0 <= 0
 inactive_no_flow_2_20_0_0: flow_2_20_0_0 - 1000 edge_2_20_0_0 <= 0
 inactive_no_flow_2_21_0_0: flow_2_21_0_0 - 1000 edge_2_21_0_0 <= 0
 inactive_no_flow_3_1_0_0: flow_3_1_0_0 - 1000 edge_3_1_0_0 <= 0
 inactive_no_flow_3_2_0_0: flow_3_2_0_0 - 1000 edge_3_2_0_0 <= 0
 inactive_no_flow_3_4_0_0: flow_3_4_0_0 - 1000 edge_3_4_0_0 <= 0
 inactive_no_flow_3_6_0_0: flow_3_6_0_0 - 1000 edge_3_6_0_0 <= 0
 inactive_no_flow_3_8_0_0: flow_3_8_0_0 - 1000 edge_3_8_0_0 <= 0
 inactive_no_flow_4_1_0_0: flow_4_1_0_0 - 1000 edge_4_1_0_0 <= 0
 inactive_no_flow_4_2_0_0: flow_4_2_0_0 - 1000 edge_4_2_0_0 <= 0
 inactive_no_flow_4_3_0_0: flow_4_3_0_0 - 1000 edge_4_3_0_0 <= 0
 inactive_no_flow_4_5_0_0: flow_4_5_0_0 - 1000 edge_4_5_0_0 <= 0
 inactive_no_flow_4_6_0_0: flow_4_6_0_0 - 1000 edge_4_6_0_0 <= 0
 inactive_no_flow_4_8_0_0: flow_4_8_0_0 - 1000 edge_4_8_0_0 <= 0
 inactive_no_flow_4_9_0_0: flow_4_9_0_0 - 1000 edge_4_9_0_0 <= 0
 inactive_no_flow_4_10_0_0: flow_4_10_0_0 - 1000 edge_4_10_0_0 <= 0
 inactive_no_flow_4_13_0_0: flow_4_13_0_0 - 1000 edge_4_13_0_0 <= 0
 inactive_no_flow_4_16_0_0: flow_4_16_0_0 - 1000 edge_4_16_0_0 <= 0
 inactive_no_flow_4_18_0_0: flow_4_18_0_0 - 1000 edge_4_18_0_0 <= 0
 inactive_no_flow_4_19_0_0: flow_4_19_0_0 - 1000 edge_4_19_0_0 <= 0
 inactive_no_flow_4_20_0_0: flow_4_20_0_0 - 1000 edge_4_20_0_0 <= 0
 inactive_no_flow_4_21_0_0: flow_4_21_0_0 - 1000 edge_4_21_0_0 <= 0
 inactive_no_flow_5_1_0_0: flow_5_1_0_0 - 1000 edge_5_1_0_0 <= 0
 inactive_no_flow_5_4_0_0: flow_5_4_0_0 - 1000 edge_5_4_0_0 <= 0
 inactive_no_flow_5_6_0_0: flow_5_6_0_0 - 1000 edge_5_6_0_0 <= 0
 inactive_no_flow_5_8_0_0: flow_5_8_0_0 - 1000 edge_5_8_0_0 <= 0
 inactive_no_flow_5_9_0_0: flow_5_9_0_0 - 1000 edge_5_9_0_0 <= 0
 inactive_no_flow_5_10_0_0: flow_5_10_0_0 - 1000 edge_5_10_0_0 <= 0
 inactive_no_flow_5_13_0_0: flow_5_13_0_0 - 1000 edge_5_13_0_0 <= 0
 inactive_no_flow_5_14_0_0: flow_5_14_0_0 - 1000 edge_5_14_0_0 <= 0
 inactive_no_flow_5_15_0_0: flow_5_15_0_0 - 1000 edge_5_15_0_0 <= 0
 inactive_no_flow_5_16_0_0: flow_5_16_0_0 - 1000 edge_5_16_0_0 <= 0
 inactive_no_flow_6_1_0_0: flow_6_1_0_0 - 1000 edge_6_1_0_0 <= 0
 inactive_no_flow_6_2_0_0: flow_6_2_0_0 - 1000 edge_6_2_0_0 <= 0
 inactive_no_flow_6_3_0_0: flow_6_3_0_0 - 1000 edge_6_3_0_0 <= 0
 inactive_no_flow_6_4_0_0: flow_6_4_0_0 - 1000 edge_6_4_0_0 <= 0
 inactive_no_flow_6_5_0_0: flow_6_5_0_0 - 1000 edge_6_5_0_0 <= 0
 inactive_no_flow_6_8_0_0: flow_6_8_0_0 - 1000 edge_6_8_0_0 <= 0
 inactive_no_flow_6_9_0_0: flow_6_9_0_0 - 1000 edge_6_9_0_0 <= 0
 inactive_no_flow_6_10_0_0: flow_6_10_0_0 - 1000 edge_6_10_0_0 <= 0
 inactive_no_flow_6_13_0_0: flow_6_13_0_0 - 1000 edge_6_13_0_0 <= 0
 inactive_no_flow_6_14_0_0: flow_6_14_0_0 - 1000 edge_6_14_0_0 <= 0
 inactive_no_flow_6_15_0_0: flow_6_15_0_0 - 1000 edge_6_15_0_0 <= 0
 inactive_no_flow_6_16_0_0: flow_6_16_0_0 - 1000 edge_6_16_0_0 <= 0
 inactive_no_flow_6_17_0_0: flow_6_17_0_0 - 1000 edge_6_17_0_0 <= 0
 inactive_no_flow_6_18_0_0: flow_6_18_0_0 - 1000 edge_6_18_0_0 <= 0
 inactive_no_flow_6_19_0_0: flow_6_19_0_0 - 1000 edge_6_19_0_0 <= 0
 inactive_no_flow_6_20_0_0: flow_6_20_0_0 - 1000 edge_6_20_0_0 <= 0
 inactive_no_flow_6_21_0_0: flow_6_21_0_0 - 1000 edge_6_21_0_0 <= 0
 inactive_no_flow_8_1_0_0: flow_8_1_0_0 - 1000 edge_8_1_0_0 <= 0
 inactive_no_flow_8_3_0_0: flow_8_3_0_0 - 1000 edge_8_3_0_0 <= 0
 inactive_no_flow_8_4_0_0: flow_8_4_0_0 - 1000 edge_8_4_0_0 <= 0
 inactive_no_flow_8_5_0_0: flow_8_5_0_0 - 1000 edge_8_5_0_0 <= 0
 inactive_no_flow_8_6_0_0: flow_8_6_0_0 - 1000 edge_8_6_0_0 <= 0
 inactive_no_flow_8_9_0_0: flow_8_9_0_0 - 1000 edge_8_9_0_0 <= 0
 inactive_no_flow_8_10_0_0: flow_8_10_0_0 - 1000 edge_8_10_0_0 <= 0
 inactive_no_flow_8_13_0_0: flow_8_13_0_0 - 1000 edge_8_13_0_0 <= 0
 inactive_no_flow_9_1_0_0: flow_9_1_0_0 - 1000 edge_9_1_0_0 <= 0
 inactive_no_flow_9_2_0_0: flow_9_2_0_0 - 1000 edge_9_2_0_0 <= 0
 inactive_no_flow_9_3_0_0: flow_9_3_0_0 - 1000 edge_9_3_0_0 <= 0
 inactive_no_flow_9_4_0_0: flow_9_4_0_0 - 1000 edge_9_4_0_0 <= 0
 inactive_no_flow_9_5_0_0: flow_9_5_0_0 - 1000 edge_9_5_0_0 <= 0
 inactive_no_flow_9_6_0_0: flow_9_6_0_0 - 1000 edge_9_6_0_0 <= 0
 inactive_no_flow_9_8_0_0: flow_9_8_0_0 - 1000 edge_9_8_0_0 <= 0
 inactive_no_flow_9_10_0_0: flow_9_10_0_0 - 1000 edge_9_10_0_0 <= 0
 inactive_no_flow_9_13_0_0: flow_9_13_0_0 - 1000 edge_9_13_0_0 <= 0
 inactive_no_flow_9_14_0_0: flow_9_14_0_0 - 1000 edge_9_14_0_0 <= 0
 inactive_no_flow_9_15_0_0: flow_9_15_0_0 - 1000 edge_9_15_0_0 <= 0
 inactive_no_flow_9_16_0_0: flow_9_16_0_0 - 1000 edge_9_16_0_0 <= 0
 inactive_no_flow_9_17_0_0: flow_9_17_0_0 - 1000 edge_9_17_0_0 <= 0
 inactive_no_flow_9_18_0_0: flow_9_18_0_0 - 1000 edge_9_18_0_0 <= 0
 inactive_no_flow_9_19_0_0: flow_9_19_0_0 - 1000 edge_9_19_0_0 <= 0
 inactive_no_flow_9_20_0_0: flow_9_20_0_0 - 1000 edge_9_20_0_0 <= 0
 inactive_no_flow_9_21_0_0: flow_9_21_0_0 - 1000 edge_9_21_0_0 <= 0
 inactive_no_flow_10_8_0_0: flow_10_8_0_0 - 1000 edge_10_8_0_0 <= 0
 inactive_no_flow_10_9_0_0: flow_10_9_0_0 - 1000 edge_10_9_0_0 <= 0
 inactive_no_flow_10_13_0_0: flow_10_13_0_0 - 1000 edge_10_13_0_0 <= 0
 inactive_no_flow_13_1_0_0: flow_13_1_0_0 - 1000 edge_13_1_0_0 <= 0
 inactive_no_flow_13_2_0_0: flow_13_2_0_0 - 1000 edge_13_2_0_0 <= 0
 inactive_no_flow_13_3_0_0: flow_13_3_0_0 - 1000 edge_13_3_0_0 <= 0
 inactive_no_flow_13_4_0_0: flow_13_4_0_0 - 1000 edge_13_4_0_0 <= 0
 inactive_no_flow_13_5_0_0: flow_13_5_0_0 - 1000 edge_13_5_0_0 <= 0
 inactive_no_flow_13_6_0_0: flow_13_6_0_0 - 1000 edge_13_6_0_0 <= 0
 inactive_no_flow_13_8_0_0: flow_13_8_0_0 - 1000 edge_13_8_0_0 <= 0
 inactive_no_flow_13_9_0_0: flow_13_9_0_0 - 1000 edge_13_9_0_0 <= 0
 inactive_no_flow_13_10_0_0: flow_13_10_0_0 - 1000 edge_13_10_0_0 <= 0
 inactive_no_flow_13_14_0_0: flow_13_14_0_0 - 1000 edge_13_14_0_0 <= 0
 inactive_no_flow_13_15_0_0: flow_13_15_0_0 - 1000 edge_13_15_0_0 <= 0
 inactive_no_flow_13_16_0_0: flow_13_16_0_0 - 1000 edge_13_16_0_0 <= 0
 inactive_no_flow_13_17_0_0: flow_13_17_0_0 - 1000 edge_13_17_0_0 <= 0
 inactive_no_flow_13_18_0_0: flow_13_18_0_0 - 1000 edge_13_18_0_0 <= 0
 inactive_no_flow_13_19_0_0: flow_13_19_0_0 - 1000 edge_13_19_0_0 <= 0
 inactive_no_flow_13_20_0_0: flow_13_20_0_0 - 1000 edge_13_20_0_0 <= 0
 inactive_no_flow_13_21_0_0: flow_13_21_0_0 - 1000 edge_13_21_0_0 <= 0
 inactive_no_flow_14_1_0_0: flow_14_1_0_0 - 1000 edge_14_1_0_0 <= 0
 inactive_no_flow_14_10_0_0: flow_14_10_0_0 - 1000 edge_14_10_0_0 <= 0
 inactive_no_flow_14_13_0_0: flow_14_13_0_0 - 1000 edge_14_13_0_0 <= 0
 inactive_no_flow_14_15_0_0: flow_14_15_0_0 - 1000 edge_14_15_0_0 <= 0
 inactive_no_flow_14_16_0_0: flow_14_16_0_0 - 1000 edge_14_16_0_0 <= 0
 inactive_no_flow_14_17_0_0: flow_14_17_0_0 - 1000 edge_14_17_0_0 <= 0
 inactive_no_flow_14_18_0_0: flow_14_18_0_0 - 1000 edge_14_18_0_0 <= 0
 inactive_no_flow_14_19_0_0: flow_14_19_0_0 - 1000 edge_14_19_0_0 <= 0
 inactive_no_flow_14_20_0_0: flow_14_20_0_0 - 1000 edge_14_20_0_0 <= 0
 inactive_no_flow_15_14_0_0: flow_15_14_0_0 - 1000 edge_15_14_0_0 <= 0
 inactive_no_flow_15_16_0_0: flow_15_16_0_0 - 1000 edge_15_16_0_0 <= 0
 inactive_no_flow_15_18_0_0: flow_15_18_0_0 - 1000 edge_15_18_0_0 <= 0
 inactive_no_flow_15_19_0_0: flow_15_19_0_0 - 1000 edge_15_19_0_0 <= 0
 inactive_no_flow_15_20_0_0: flow_15_20_0_0 - 1000 edge_15_20_0_0 <= 0
 inactive_no_flow_16_1_0_0: flow_16_1_0_0 - 1000 edge_16_1_0_0 <= 0
 inactive_no_flow_16_2_0_0: flow_16_2_0_0 - 1000 edge_16_2_0_0 <= 0
 inactive_no_flow_16_3_0_0: flow_16_3_0_0 - 1000 edge_16_3_0_0 <= 0
 inactive_no_flow_16_4_0_0: flow_16_4_0_0 - 1000 edge_16_4_0_0 <= 0
 inactive_no_flow_16_5_0_0: flow_16_5_0_0 - 1000 edge_16_5_0_0 <= 0
 inactive_no_flow_16_6_0_0: flow_16_6_0_0 - 1000 edge_16_6_0_0 <= 0
 inactive_no_flow_16_8_0_0: flow_16_8_0_0 - 1000 edge_16_8_0_0 <= 0
 inactive_no_flow_16_9_0_0: flow_16_9_0_0 - 1000 edge_16_9_0_0 <= 0
 inactive_no_flow_16_10_0_0: flow_16_10_0_0 - 1000 edge_16_10_0_0 <= 0
 inactive_no_flow_16_13_0_0: flow_16_13_0_0 - 1000 edge_16_13_0_0 <= 0
 inactive_no_flow_16_14_0_0: flow_16_14_0_0 - 1000 edge_16_14_0_0 <= 0
 inactive_no_flow_16_15_0_0: flow_16_15_0_0 - 1000 edge_16_15_0_0 <= 0
 inactive_no_flow_16_17_0_0: flow_16_17_0_0 - 1000 edge_16_17_0_0 <= 0
 inactive_no_flow_16_18_0_0: flow_16_18_0_0 - 1000 edge_16_18_0_0 <= 0
 inactive_no_flow_16_19_0_0: flow_16_19_0_0 - 1000 edge_16_19_0_0 <= 0
 inactive_no_flow_16_20_0_0: flow_16_20_0_0 - 1000 edge_16_20_0_0 <= 0
 inactive_no_flow_16_21_0_0: flow_16_21_0_0 - 1000 edge_16_21_0_0 <= 0
 inactive_no_flow_17_16_0_0: flow_17_16_0_0 - 1000 edge_17_16_0_0 <= 0
 inactive_no_flow_18_14_0_0: flow_18_14_0_0 - 1000 edge_18_14_0_0 <= 0
 inactive_no_flow_18_15_0_0: flow_18_15_0_0 - 1000 edge_18_15_0_0 <= 0
 inactive_no_flow_18_16_0_0: flow_18_16_0_0 - 1000 edge_18_16_0_0 <= 0
 inactive_no_flow_18_17_0_0: flow_18_17_0_0 - 1000 edge_18_17_0_0 <= 0
 inactive_no_flow_18_19_0_0: flow_18_19_0_0 - 1000 edge_18_19_0_0 <= 0
 inactive_no_flow_18_20_0_0: flow_18_20_0_0 - 1000 edge_18_20_0_0 <= 0
 inactive_no_flow_18_21_0_0: flow_18_21_0_0 - 1000 edge_18_21_0_0 <= 0
 inactive_no_flow_19_1_0_0: flow_19_1_0_0 - 1000 edge_19_1_0_0 <= 0
 inactive_no_flow_19_2_0_0: flow_19_2_0_0 - 1000 edge_19_2_0_0 <= 0
 inactive_no_flow_19_4_0_0: flow_19_4_0_0 - 1000 edge_19_4_0_0 <= 0
 inactive_no_flow_19_5_0_0: flow_19_5_0_0 - 1000 edge_19_5_0_0 <= 0
 inactive_no_flow_19_6_0_0: flow_19_6_0_0 - 1000 edge_19_6_0_0 <= 0
 inactive_no_flow_19_8_0_0: flow_19_8_0_0 - 1000 edge_19_8_0_0 <= 0
 inactive_no_flow_19_9_0_0: flow_19_9_0_0 - 1000 edge_19_9_0_0 <= 0
 inactive_no_flow_19_10_0_0: flow_19_10_0_0 - 1000 edge_19_10_0_0 <= 0
 inactive_no_flow_19_13_0_0: flow_19_13_0_0 - 1000 edge_19_13_0_0 <= 0
 inactive_no_flow_19_14_0_0: flow_19_14_0_0 - 1000 edge_19_14_0_0 <= 0
 inactive_no_flow_19_15_0_0: flow_19_15_0_0 - 1000 edge_19_15_0_0 <= 0
 inactive_no_flow_19_16_0_0: flow_19_16_0_0 - 1000 edge_19_16_0_0 <= 0
 inactive_no_flow_19_17_0_0: flow_19_17_0_0 - 1000 edge_19_17_0_0 <= 0
 inactive_no_flow_19_18_0_0: flow_19_18_0_0 - 1000 edge_19_18_0_0 <= 0
 inactive_no_flow_19_20_0_0: flow_19_20_0_0 - 1000 edge_19_20_0_0 <= 0
 inactive_no_flow_19_21_0_0: flow_19_21_0_0 - 1000 edge_19_21_0_0 <= 0
 inactive_no_flow_20_1_0_0: flow_20_1_0_0 - 1000 edge_20_1_0_0 <= 0
 inactive_no_flow_20_2_0_0: flow_20_2_0_0 - 1000 edge_20_2_0_0 <= 0
 inactive_no_flow_20_3_0_0: flow_20_3_0_0 - 1000 edge_20_3_0_0 <= 0
 inactive_no_flow_20_4_0_0: flow_20_4_0_0 - 1000 edge_20_4_0_0 <= 0
 inactive_no_flow_20_6_0_0: flow_20_6_0_0 - 1000 edge_20_6_0_0 <= 0
 inactive_no_flow_20_8_0_0: flow_20_8_0_0 - 1000 edge_20_8_0_0 <= 0
 inactive_no_flow_20_9_0_0: flow_20_9_0_0 - 1000 edge_20_9_0_0 <= 0
 inactive_no_flow_20_10_0_0: flow_20_10_0_0 - 1000 edge_20_10_0_0 <= 0
 inactive_no_flow_20_13_0_0: flow_20_13_0_0 - 1000 edge_20_13_0_0 <= 0
 inactive_no_flow_20_14_0_0: flow_20_14_0_0 - 1000 edge_20_14_0_0 <= 0
 inactive_no_flow_20_15_0_0: flow_20_15_0_0 - 1000 edge_20_15_0_0 <= 0
 inactive_no_flow_20_16_0_0: flow_20_16_0_0 - 1000 edge_20_16_0_0 <= 0
 inactive_no_flow_20_18_0_0: flow_20_18_0_0 - 1000 edge_20_18_0_0 <= 0
 inactive_no_flow_20_19_0_0: flow_20_19_0_0 - 1000 edge_20_19_0_0 <= 0
 inactive_no_flow_20_21_0_0: flow_20_21_0_0 - 1000 edge_20_21_0_0 <= 0
 inactive_no_flow_21_20_0_0: flow_21_20_0_0 - 1000 edge_21_20_0_0 <= 0
Bounds
Binaries
 edge_0_1_0_0 edge_0_2_0_0 edge_0_3_0_0 edge_0_4_0_0 edge_0_5_0_0
 edge_0_6_0_0 edge_0_8_0_0 edge_0_9_0_0 edge_0_13_0_0 edge_0_16_0_0
 edge_0_19_0_0 edge_0_20_0_0 edge_1_2_0_0 edge_1_3_0_0 edge_1_4_0_0
 edge_1_5_0_0 edge_1_6_0_0 edge_1_8_0_0 edge_1_9_0_0 edge_1_10_0_0
 edge_2_1_0_0 edge_2_3_0_0 edge_2_4_0_0 edge_2_6_0_0 edge_2_8_0_0
 edge_2_9_0_0 edge_2_10_0_0 edge_2_13_0_0 edge_2_16_0_0 edge_2_18_0_0
 edge_2_19_0_0 edge_2_20_0_0 edge_2_21_0_0 edge_3_1_0_0 edge_3_2_0_0
 edge_3_4_0_0 edge_3_6_0_0 edge_3_8_0_0 edge_4_1_0_0 edge_4_2_0_0
 edge_4_3_0_0 edge_4_5_0_0 edge_4_6_0_0 edge_4_8_0_0 edge_4_9_0_0
 edge_4_10_0_0 edge_4_13_0_0 edge_4_16_0_0 edge_4_18_0_0 edge_4_19_0_0
 edge_4_20_0_0 edge_4_21_0_0 edge_5_1_0_0 edge_5_4_0_0 edge_5_6_0_0
 edge_5_8_0_0 edge_5_9_0_0 edge_5_10_0_0 edge_5_13_0_0 edge_5_14_0_0
 edge_5_15_0_0 edge_5_16_0_0 edge_6_1_0_0 edge_6_2_0_0 edge_6_3_0_0
 edge_6_4_0_0 edge_6_5_0_0 edge_6_8_0_0 edge_6_9_0_0 edge_6_10_0_0
 edge_6_13_0_0 edge_6_14_0_0 edge_6_15_0_0 edge_6_16_0_0 edge_6_17_0_0
 edge_6_18_0_0 edge_6_19_0_0 edge_6_20_0_0 edge_6_21_0_0 edge_8_1_0_0
 edge_8_3_0_0 edge_8_4_0_0 edge_8_5_0_0 edge_8_6_0_0 edge_8_9_0_0
 edge_8_10_0_0 edge_8_13_0_0 edge_9_1_0_0 edge_9_2_0_0 edge_9_3_0_0
 edge_9_4_0_0 edge_9_5_0_0 edge_9_6_0_0 edge_9_8_0_0 edge_9_10_0_0
 edge_9_13_0_0 edge_9_14_0_0 edge_9_15_0_0 edge_9_16_0_0 edge_9_17_0_0
 edge_9_18_0_0 edge_9_19_0_0 edge_9_20_0_0 edge_9_21_0_0 edge_10_8_0_0
 edge_10_9_0_0 edge_10_13_0_0 edge_13_1_0_0 edge_13_2_0_0 edge_13_3_0_0
 edge_13_4_0_0 edge_13_5_0_0 edge_13_6_0_0 edge_13_8_0_0 edge_13_9_0_0
 edge_13_10_0_0 edge_13_14_0_0 edge_13_15_0_0 edge_13_16_0_0 edge_13_17_0_0
 edge_13_18_0_0 edge_13_19_0_0 edge_13_20_0_0 edge_13_21_0_0 edge_14_1_0_0
 edge_14_10_0_0 edge_14_13_0_0 edge_14_15_0_0 edge_14_16_0_0 edge_14_17_0_0
 edge_14_18_0_0 edge_14_19_0_0 edge_14_20_0_0 edge_15_14_0_0 edge_15_16_0_0
 edge_15_18_0_0 edge_15_19_0_0 edge_15_20_0_0 edge_16_1_0_0 edge_16_2_0_0
 edge_16_3_0_0 edge_16_4_0_0 edge_16_5_0_0 edge_16_6_0_0 edge_16_8_0_0
 edge_16_9_0_0 edge_16_10_0_0 edge_16_13_0_0 edge_16_14_0_0 edge_16_15_0_0
 edge_16_17_0_0 edge_16_18_0_0 edge_16_19_0_0 edge_16_20_0_0 edge_16_21_0_0
 edge_17_16_0_0 edge_18_14_0_0 edge_18_15_0_0 edge_18_16_0_0 edge_18_17_0_0
 edge_18_19_0_0 edge_18_20_0_0 edge_18_21_0_0 edge_19_1_0_0 edge_19_2_0_0
 edge_19_4_0_0 edge_19_5_0_0 edge_19_6_0_0 edge_19_8_0_0 edge_19_9_0_0
 edge_19_10_0_0 edge_19_13_0_0 edge_19_14_0_0 edge_19_15_0_0 edge_19_16_0_0
 edge_19_17_0_0 edge_19_18_0_0 edge_19_20_0_0 edge_19_21_0_0 edge_20_1_0_0
 edge_20_2_0_0 edge_20_3_0_0 edge_20_4_0_0 edge_20_6_0_0 edge_20_8_0_0
 edge_20_9_0_0 edge_20_10_0_0 edge_20_13_0_0 edge_20_14_0_0 edge_20_15_0_0
 edge_20_16_0_0 edge_20_18_0_0 edge_20_19_0_0 edge_20_21_0_0 edge_21_20_0_0
End
